weeks =  10 ;
types =  6 ;
Order = [|
0,0,1,0,0,1,0,0,0,0|
0,0,0,0,0,0,0,0,0,1|
0,1,0,0,0,0,0,0,0,0|
0,0,0,0,0,0,0,0,0,0|
0,0,0,0,0,0,0,0,1,1|
0,0,0,1,0,0,1,0,0,0|];
storageCost =  50 ;
SetupCost = [| 0,197,165,141,154,169|
139,0,157,123,143,144|
108,185,0,131,159,156|
124,177,184,0,187,100|
156,168,130,166,0,195|
193,147,114,110,168,0|];
